1000 1084
2 3
1 4
1 5
2 6
3 7 8
4 9
5 10
5 11
6 12
7 13
8 14
9 15
10
11 16
12 17
14 18
15 19
16 20 21
17 22
18 23
18 24 25
19 26
20 27 28
21 29 30
21
22 31
23 32 33
23 34
24 35 36
24 37 38
26 39
27
27 40 41
28 42
29 43 44 45
29
30 46 47
30 48
31 49
33 50 51 52
33
34 53
35 54
35 55 56
35 57
37 58 59
37
38 60
39 61
40 62 63
40
40 64
42 65
43 66
44
44 67 68
45 69
46
46 60
48 59
49 70
50 71 72 73
50 74
52 75 76
53 75 77
54 78
56 79 80
56
57 81
61 82
62 83 84 85
62 86 87 88
62 89 90
63 91
64 65
64 92
65 93
66 94 95
67
67 96 97
69 98
70 99
71 100 101 102
71 103 104
71 105
72 105 106
72 107
72 108 109
73
73
74 110
76 111 112
77 113
78 114
78
80 115 116
80
81 117
82 118
83 119 120
83 121 122
83 123 124
84 125
84
85 86 126 127
86 128
87
88 129 130
88
91 130
92 131
92 132
93 133 134
94 135 136
96 137
96
98
99 138
100 139 140
100 141 142
101 143
101 144
102 141 145 146
102 147
103 143
105 145
105 148
106 149
108 150 151 152
108 110 153
111
112 154
113 155 156
113 157
114 158 159
114 160
115 161
118 162
119 163 164
119 165
120 123 166
120
121 125 167
122 168
123 126
123 169 170
124
127 171 172
128
129 173
129 174
129 175
130 176
132
133 177
133 178
134
135 179
135
136 180
137 181
138 182
139 183 184
139 185 186
140 187
141 188
143
144 189
146 190 191
146
148 192 193
148 194
150 195 196 197
151 198
152 199
153 200
155 201
156 202
158 203
160 197 204 205 206
161 207
162 208
163
163 209
164 210 211
164
165 189 212
166 213 214
168 187
169 215
169 216
171 217 218
171 219
172 220
173 221
173 222
173 180 223
174 224 225
175 202
176 226
177 227
178 199
179 228 229
180 230
180 231 232
180 233 234
181 235 236 237
182 238
184 239 240
185
185 241 242
187 243 244
188 215 245 246
188 247
190 213
191 248 249
192 250 251
192 250
193 252
194 248 253
195 254
196 255
197 256
198 251
198 252
200
201 229
203 257
203 227
204 257
205
205 235
206 255 258
206 259 260
207 232
207 261
207 262
208 263 264
209 265 266
209 267
211
211 247 268
212
212
213 269
213 270
214 242 271
216 220
216 272
217 218
217 224
219 225 273 274
220 275 276
221 277
222 233
223
228 230
233 278
234 279
234 280 281
236 279 282
237
238 283
238 284 285
239 286
239 287 288
240
242
245 289 290
246 271 291 292
247 270 293
249
252 294 295
252 275
253 274 296
253 297
254 298
258 299 300
259 261
260 301
260 302 303
261 304 305
263 306
264
264 307
265 292 308
266 309
266 310 311
269 312
269 313
270 314 315 316
270 286
271
273 317 318
273
275 319
276 320
277 321
278 322
278 323
280 324
281 325
281 326
282 327
282 328
283 329
285 330 331
286 332
287 333
288 334 335
288 336
289 337
290 316
291 338
291 339
291 313
294 340
294 341
296 342
297 342 343
298 344
299 324
300 345
301 322
302 346
303
304 347
305 348
306 349
307 350
307 351
308 352
309
310 353 354
310 355
311 356
312 357
314 358 359
315 360
317 361 362
318 363
319 320 364
320 365
321 366
323 367
325 347 368 369
327 346 370
328 371
329 372
330 373
331 374
332 375
334 376
334 377
335 378 379
336 380
337 381 382 383
338 384 385
338
339 386
340 367 387 388
340 388 389
341 390
342 391
343 392
344 393
345 361 394
346 395 396 397
346 398 399
347
348 400 401
349 402
350 403 404
351 405
352 385
353 406
354 407
355 408
355 409
356
357 391
357 410
357 411
358 412 413
358 375
360 414
361 396 415
361 362 416
362 417
363 418
364 381
365 419 420
366 421
367
368 422
368 387 423
368 424 425
369 426
369 427
371 428 429
371 429 430
372 431
373 432
373 433 434
374 435
376 436
377 437
378 438
379 439
382 440
383 441
384 442
384 436
386 443
387 444
388 445 446 447
389 448
390
392
392
393
395 426 449
396 450 451
397 452 453
397 454
398 422 455
399 456 457
400 458 459
400 401
401 460
402 461
403 433
404 432
404 462
405 463 464
406 413 465
407 466 467
408 468
409 469
410 470
411 471 472
412 473
414 474 475
415
416 476
416 477
416 478
417
422 479 480
423
423 453
424 481 482
424 451 483
425 479 484
426 459 485
427 486
427
428 487 488
428 455
430 489
431 490
434 491 492
435 493 494
435 495
436 496 497 498
437 499
437 500
438 501 502
439 503
440 504
441 505
441 506
442 507
443 508
443 509
445 510
446 511 512
447 504 513
449 454
449 514
452 515 516
452
453 517
454 518
455 519
456
458 520
458 521
460 522
461 523
462 524 525
462 526
463 527
463 528
464 529 530
465 531 532 533
465 534
465 500
466 532 535
467 498
468 535 536
468 537 538
469 539
470 478
471 540 541
472 542
473 543
474 544
475 542
476 545 546
477 547
477 548
478
480 549
481 550
481 551
483
484 552
485
487 553 554
488 555
489 556
490 557
491 558
491 559
492 529 560
493 561
494 562
495 526 562 563
495 564
496 565
496 499 566
496
497
499 501 567
501 568
502 569
502 570
503 571
505
505
506 509
507
508 572 573
510 574
510 574
511 575
512 550
514 576
515 548
516 577
518 578
520 579
520 580 581
521 582
522 583 584
523 585
524 586
525 587
526 588
527 589
528 529 587
529 590 591
530 592
531 593
532 593
535 594
536 595
537 596 597
538
539 598
544 599
544 600
545 546
547
549 601 602
551 603
552 604
553 605
554 606
554 607
555 608
556 609 610
556 611
557 612
558 613
559 562
560 614
561 613
563 592
563 614
564 590
565 566
567 615 616
568 617 618
569 598
569 619
571 596 618
572 620
573 621
576 622
576 607
577 623
578 624
579 625
580 626
581 602
582 622
583 627 628
583 629 630
584 631 632
585 633
586 589
588 591
594 634 635
594 636
595
595 598
597
599 637
600 638
601 608
603 639
604 639
605 640
606 641
609
609 642
610 643 644
610 645
611 646
611 647
612 648
615 649
615 650
616 651
620 652
621 653
623 624 654 655
625 656 657
626 658
628 643 659
629 642 660
629 661
630
631 662
632
633 663
634 664 665
635 666
636 667
637 668
638 668 669
639 670
639 671
640 672
640 673
641
642
643 674
644 675
646
648 676
649 677
649 678
650
651 679
652 653
653 680
654 681
655 682
656 683 684
657 685
660 686 687
661
663 688
664 689
665 690 691
667 692
669 693
670 694 695
671 696
672
672 697
673
674 697
674
676 698
677 699
678 700
678 701
679 702
680 703 704
681 705
681 706
682 707
684 686
688 708
689 709 710
690 711
691 712
692 713
693 714
693 715 716
694 717
695 718 719
696 720 721
698 722
699 723
699 724
700 725
701 726
702 727
703 728 729
704 730
704
705 731
706 732
706
707 733
707 734
708 735
709 736
710
711 737 738
712 739 740
713
714 741 742
714 743
715
717 744
718
720 745 746
721 747
722 748
723 749
725 750
725 751
726 752
726 753
728 754
728 754 755
729 756 757
731 758
733
733 759
734 760
735 761
736 762 763
737 764
738 765
739 766
740 764
741 742
742 767
743 768
743 769
744 770
746 771
747 772 773
748 774
749 775 776
749 777 778
750 753
751 779
752 780
755 781
756 782
757 783 784
758 785
759 786
760 787 788
760
761 789
762 790
762 791
763 792
763 793
765 794
766 795
767
768 796 797
769 798
769 799
770 800
771
772 801
772 802 803
774 804
775 793
776 805
777 806
778 790 807
779 808
780 809
782 810
782 811
783 812
784 813
785 814
787 815 816
788 817
788 818
789 819
791 820
792 821 822
793 822
794 823
795 824
796 825 826
797 827 828
798 829 830
799 831 832 833 834
800 835 836
801
801
802 837
803 838
804 839
805 840
806 840
806 807
808 841
809 842
810 843 844
810 843
811 845
811 846
812 847
812 848
813 849
813 850
813 851
813 852
814 853
814 854
817 855 856
818 857
819 858
820 821
823 859
824 860
825 826 861 862
825 863
827 864
828 864 865
829
830 852 866
831 867 868
832 869 870
833 871
834 848 872
835 873 874 875
836 874 876
837 877 878
837
838 879
839 880
841 881
842 882
843 883
843
844 884 885
845 846 886 887
846 888 889
848 890
849 891
849 891 892
850 893
850 894 895
851 896
852 897
853 898 899
853 854 900 901
853 902
854 900
855
855 903 904
857
858 905
859 906
860 907
861 885 908
863 909 910
863 883
864 911 912
864 913
865 914
865 912 915 916
866 917
867 868
868 918 919 920
869 921
870 922
870
871 923
872 924
873 925
873 926
874 876 927
874 928
875 926 929
878
878 930
880 931
881 932
882 933
883 914 934
884 935 936
884 937
886 938 939
886 889
887 940
888 908 941 942
889 943
889 944 945 946
890 947
892 948 949
892 950
892 951 952
893 953
894 954
896 955 956 957
897 958 959
898 960
899 902
900 961
901 962
902 963
904 964 965
905 966
906 967 968 969
907 970
908 971 972
909 973
909 974 975 976
910 977 978 979
911 980
911 981 982
913
914 943 983 984
914 985 986
915 941
916 981
916 984
916 987 988
917 989
918 990
918 991
919 992
920 993
920 994
921 995
922 978
923 996 997
923 998
923 999
924 1000
924
925
927
928
929
930
930
931
932
932
932
933
934
934
935
936
936
936
937
937 954
937 998
938
939 944
939
941 986
941 945
942
942 983
946
946
947
948
949
950 999
951
952
953 998
955
955
956 979 995
957 992
958
